Instance Name : r107
Date : 2022-07-18
Solution
Route 1 : 27 31 88 30 10 63 90 32 70
Route 2 : 26 21 39 23 67 55 4 25 54
Route 3 : 3 33 65 71 9 66 20 51 1
Route 4 : 94 97 42 14 44 38 86 16 91 100 37 98
Route 5 : 2 57 43 15 41 22 75 56 74 72 73 58
Route 6 : 95 92 59 99 6 87 13 85 93 96
Route 7 : 28 69 50 76 79 78 34 35 81 77
Route 8 : 47 36 46 8 84 61 17 5 60 89
Route 9 : 83 45 53 40 12 68 29 24 80
Route 10 : 52 7 62 11 64 49 19 48 82 18
